c User generated cnf file
p cnf 11 63
3 -7 2 0 
9 10 -11 0 
2 -1 9 0 
-9 4 10 0 
4 4 -5 0 
11 10 -2 0 
-7 11 3 0 
6 11 -4 0 
-11 7 2 0 
7 4 -5 0 
7 5 -11 0 
11 10 -2 0 
2 -8 8 0 
-1 4 5 0 
-9 6 4 0 
7 -9 5 0 
4 5 -8 0 
-6 10 6 0 
3 2 -5 0 
1 5 -3 0 
2 1 -2 0 
11 -7 6 0 
2 -8 7 0 
6 2 -11 0 
11 9 -1 0 
-8 4 3 0 
8 11 -9 0 
7 8 -11 0 
-4 5 10 0 
6 6 -8 0 
7 3 -5 0 
-2 2 7 0 
-11 6 4 0 
-1 3 9 0 
7 7 -5 0 
3 -2 4 0 
9 -4 3 0 
10 1 -8 0 
-1 3 6 0 
5 9 -5 0 
-7 2 7 0 
-10 2 10 0 
3 5 -2 0 
10 7 -9 0 
4 4 -6 0 
9 9 -5 0 
2 7 -3 0 
3 8 -3 0 
3 -9 10 0 
-11 9 10 0 
6 -8 11 0 
6 2 -8 0 
2 -9 11 0 
-10 4 5 0 
-9 7 7 0 
-7 7 7 0 
9 11 -9 0 
7 3 -6 0 
4 -1 8 0 
2 -3 11 0 
-8 4 4 0 
2 -10 10 0 
7 8 -1 0 
